c *********************************
c * Circuit generated by BenCGen
c *
c * CarrySaveAdder_131_131_131_131_132
c *
c * Ports with 1 gate(s): 2
c * Ports with 2 gate(s): 656
c * Total gates: 658
c *********************************
p cnf 1051 2234
1 658 0
-1 -658 0
1 -657 0
658 -657 0
-1 -658 657 0
657 -525 0
-657 525 0
1 132 -659 0
-1 132 659 0
1 -132 659 0
-1 -132 -659 0
659 263 -394 0
-659 263 394 0
659 -263 394 0
-659 -263 -394 0
263 -660 0
659 -660 0
-263 -659 660 0
132 -661 0
1 -661 0
-132 -1 661 0
-660 526 0
-661 526 0
660 661 -526 0
2 133 -662 0
-2 133 662 0
2 -133 662 0
-2 -133 -662 0
662 264 -395 0
-662 264 395 0
662 -264 395 0
-662 -264 -395 0
264 -663 0
662 -663 0
-264 -662 663 0
133 -664 0
2 -664 0
-133 -2 664 0
-663 527 0
-664 527 0
663 664 -527 0
3 134 -665 0
-3 134 665 0
3 -134 665 0
-3 -134 -665 0
665 265 -396 0
-665 265 396 0
665 -265 396 0
-665 -265 -396 0
265 -666 0
665 -666 0
-265 -665 666 0
134 -667 0
3 -667 0
-134 -3 667 0
-666 528 0
-667 528 0
666 667 -528 0
4 135 -668 0
-4 135 668 0
4 -135 668 0
-4 -135 -668 0
668 266 -397 0
-668 266 397 0
668 -266 397 0
-668 -266 -397 0
266 -669 0
668 -669 0
-266 -668 669 0
135 -670 0
4 -670 0
-135 -4 670 0
-669 529 0
-670 529 0
669 670 -529 0
5 136 -671 0
-5 136 671 0
5 -136 671 0
-5 -136 -671 0
671 267 -398 0
-671 267 398 0
671 -267 398 0
-671 -267 -398 0
267 -672 0
671 -672 0
-267 -671 672 0
136 -673 0
5 -673 0
-136 -5 673 0
-672 530 0
-673 530 0
672 673 -530 0
6 137 -674 0
-6 137 674 0
6 -137 674 0
-6 -137 -674 0
674 268 -399 0
-674 268 399 0
674 -268 399 0
-674 -268 -399 0
268 -675 0
674 -675 0
-268 -674 675 0
137 -676 0
6 -676 0
-137 -6 676 0
-675 531 0
-676 531 0
675 676 -531 0
7 138 -677 0
-7 138 677 0
7 -138 677 0
-7 -138 -677 0
677 269 -400 0
-677 269 400 0
677 -269 400 0
-677 -269 -400 0
269 -678 0
677 -678 0
-269 -677 678 0
138 -679 0
7 -679 0
-138 -7 679 0
-678 532 0
-679 532 0
678 679 -532 0
8 139 -680 0
-8 139 680 0
8 -139 680 0
-8 -139 -680 0
680 270 -401 0
-680 270 401 0
680 -270 401 0
-680 -270 -401 0
270 -681 0
680 -681 0
-270 -680 681 0
139 -682 0
8 -682 0
-139 -8 682 0
-681 533 0
-682 533 0
681 682 -533 0
9 140 -683 0
-9 140 683 0
9 -140 683 0
-9 -140 -683 0
683 271 -402 0
-683 271 402 0
683 -271 402 0
-683 -271 -402 0
271 -684 0
683 -684 0
-271 -683 684 0
140 -685 0
9 -685 0
-140 -9 685 0
-684 534 0
-685 534 0
684 685 -534 0
10 141 -686 0
-10 141 686 0
10 -141 686 0
-10 -141 -686 0
686 272 -403 0
-686 272 403 0
686 -272 403 0
-686 -272 -403 0
272 -687 0
686 -687 0
-272 -686 687 0
141 -688 0
10 -688 0
-141 -10 688 0
-687 535 0
-688 535 0
687 688 -535 0
11 142 -689 0
-11 142 689 0
11 -142 689 0
-11 -142 -689 0
689 273 -404 0
-689 273 404 0
689 -273 404 0
-689 -273 -404 0
273 -690 0
689 -690 0
-273 -689 690 0
142 -691 0
11 -691 0
-142 -11 691 0
-690 536 0
-691 536 0
690 691 -536 0
12 143 -692 0
-12 143 692 0
12 -143 692 0
-12 -143 -692 0
692 274 -405 0
-692 274 405 0
692 -274 405 0
-692 -274 -405 0
274 -693 0
692 -693 0
-274 -692 693 0
143 -694 0
12 -694 0
-143 -12 694 0
-693 537 0
-694 537 0
693 694 -537 0
13 144 -695 0
-13 144 695 0
13 -144 695 0
-13 -144 -695 0
695 275 -406 0
-695 275 406 0
695 -275 406 0
-695 -275 -406 0
275 -696 0
695 -696 0
-275 -695 696 0
144 -697 0
13 -697 0
-144 -13 697 0
-696 538 0
-697 538 0
696 697 -538 0
14 145 -698 0
-14 145 698 0
14 -145 698 0
-14 -145 -698 0
698 276 -407 0
-698 276 407 0
698 -276 407 0
-698 -276 -407 0
276 -699 0
698 -699 0
-276 -698 699 0
145 -700 0
14 -700 0
-145 -14 700 0
-699 539 0
-700 539 0
699 700 -539 0
15 146 -701 0
-15 146 701 0
15 -146 701 0
-15 -146 -701 0
701 277 -408 0
-701 277 408 0
701 -277 408 0
-701 -277 -408 0
277 -702 0
701 -702 0
-277 -701 702 0
146 -703 0
15 -703 0
-146 -15 703 0
-702 540 0
-703 540 0
702 703 -540 0
16 147 -704 0
-16 147 704 0
16 -147 704 0
-16 -147 -704 0
704 278 -409 0
-704 278 409 0
704 -278 409 0
-704 -278 -409 0
278 -705 0
704 -705 0
-278 -704 705 0
147 -706 0
16 -706 0
-147 -16 706 0
-705 541 0
-706 541 0
705 706 -541 0
17 148 -707 0
-17 148 707 0
17 -148 707 0
-17 -148 -707 0
707 279 -410 0
-707 279 410 0
707 -279 410 0
-707 -279 -410 0
279 -708 0
707 -708 0
-279 -707 708 0
148 -709 0
17 -709 0
-148 -17 709 0
-708 542 0
-709 542 0
708 709 -542 0
18 149 -710 0
-18 149 710 0
18 -149 710 0
-18 -149 -710 0
710 280 -411 0
-710 280 411 0
710 -280 411 0
-710 -280 -411 0
280 -711 0
710 -711 0
-280 -710 711 0
149 -712 0
18 -712 0
-149 -18 712 0
-711 543 0
-712 543 0
711 712 -543 0
19 150 -713 0
-19 150 713 0
19 -150 713 0
-19 -150 -713 0
713 281 -412 0
-713 281 412 0
713 -281 412 0
-713 -281 -412 0
281 -714 0
713 -714 0
-281 -713 714 0
150 -715 0
19 -715 0
-150 -19 715 0
-714 544 0
-715 544 0
714 715 -544 0
20 151 -716 0
-20 151 716 0
20 -151 716 0
-20 -151 -716 0
716 282 -413 0
-716 282 413 0
716 -282 413 0
-716 -282 -413 0
282 -717 0
716 -717 0
-282 -716 717 0
151 -718 0
20 -718 0
-151 -20 718 0
-717 545 0
-718 545 0
717 718 -545 0
21 152 -719 0
-21 152 719 0
21 -152 719 0
-21 -152 -719 0
719 283 -414 0
-719 283 414 0
719 -283 414 0
-719 -283 -414 0
283 -720 0
719 -720 0
-283 -719 720 0
152 -721 0
21 -721 0
-152 -21 721 0
-720 546 0
-721 546 0
720 721 -546 0
22 153 -722 0
-22 153 722 0
22 -153 722 0
-22 -153 -722 0
722 284 -415 0
-722 284 415 0
722 -284 415 0
-722 -284 -415 0
284 -723 0
722 -723 0
-284 -722 723 0
153 -724 0
22 -724 0
-153 -22 724 0
-723 547 0
-724 547 0
723 724 -547 0
23 154 -725 0
-23 154 725 0
23 -154 725 0
-23 -154 -725 0
725 285 -416 0
-725 285 416 0
725 -285 416 0
-725 -285 -416 0
285 -726 0
725 -726 0
-285 -725 726 0
154 -727 0
23 -727 0
-154 -23 727 0
-726 548 0
-727 548 0
726 727 -548 0
24 155 -728 0
-24 155 728 0
24 -155 728 0
-24 -155 -728 0
728 286 -417 0
-728 286 417 0
728 -286 417 0
-728 -286 -417 0
286 -729 0
728 -729 0
-286 -728 729 0
155 -730 0
24 -730 0
-155 -24 730 0
-729 549 0
-730 549 0
729 730 -549 0
25 156 -731 0
-25 156 731 0
25 -156 731 0
-25 -156 -731 0
731 287 -418 0
-731 287 418 0
731 -287 418 0
-731 -287 -418 0
287 -732 0
731 -732 0
-287 -731 732 0
156 -733 0
25 -733 0
-156 -25 733 0
-732 550 0
-733 550 0
732 733 -550 0
26 157 -734 0
-26 157 734 0
26 -157 734 0
-26 -157 -734 0
734 288 -419 0
-734 288 419 0
734 -288 419 0
-734 -288 -419 0
288 -735 0
734 -735 0
-288 -734 735 0
157 -736 0
26 -736 0
-157 -26 736 0
-735 551 0
-736 551 0
735 736 -551 0
27 158 -737 0
-27 158 737 0
27 -158 737 0
-27 -158 -737 0
737 289 -420 0
-737 289 420 0
737 -289 420 0
-737 -289 -420 0
289 -738 0
737 -738 0
-289 -737 738 0
158 -739 0
27 -739 0
-158 -27 739 0
-738 552 0
-739 552 0
738 739 -552 0
28 159 -740 0
-28 159 740 0
28 -159 740 0
-28 -159 -740 0
740 290 -421 0
-740 290 421 0
740 -290 421 0
-740 -290 -421 0
290 -741 0
740 -741 0
-290 -740 741 0
159 -742 0
28 -742 0
-159 -28 742 0
-741 553 0
-742 553 0
741 742 -553 0
29 160 -743 0
-29 160 743 0
29 -160 743 0
-29 -160 -743 0
743 291 -422 0
-743 291 422 0
743 -291 422 0
-743 -291 -422 0
291 -744 0
743 -744 0
-291 -743 744 0
160 -745 0
29 -745 0
-160 -29 745 0
-744 554 0
-745 554 0
744 745 -554 0
30 161 -746 0
-30 161 746 0
30 -161 746 0
-30 -161 -746 0
746 292 -423 0
-746 292 423 0
746 -292 423 0
-746 -292 -423 0
292 -747 0
746 -747 0
-292 -746 747 0
161 -748 0
30 -748 0
-161 -30 748 0
-747 555 0
-748 555 0
747 748 -555 0
31 162 -749 0
-31 162 749 0
31 -162 749 0
-31 -162 -749 0
749 293 -424 0
-749 293 424 0
749 -293 424 0
-749 -293 -424 0
293 -750 0
749 -750 0
-293 -749 750 0
162 -751 0
31 -751 0
-162 -31 751 0
-750 556 0
-751 556 0
750 751 -556 0
32 163 -752 0
-32 163 752 0
32 -163 752 0
-32 -163 -752 0
752 294 -425 0
-752 294 425 0
752 -294 425 0
-752 -294 -425 0
294 -753 0
752 -753 0
-294 -752 753 0
163 -754 0
32 -754 0
-163 -32 754 0
-753 557 0
-754 557 0
753 754 -557 0
33 164 -755 0
-33 164 755 0
33 -164 755 0
-33 -164 -755 0
755 295 -426 0
-755 295 426 0
755 -295 426 0
-755 -295 -426 0
295 -756 0
755 -756 0
-295 -755 756 0
164 -757 0
33 -757 0
-164 -33 757 0
-756 558 0
-757 558 0
756 757 -558 0
34 165 -758 0
-34 165 758 0
34 -165 758 0
-34 -165 -758 0
758 296 -427 0
-758 296 427 0
758 -296 427 0
-758 -296 -427 0
296 -759 0
758 -759 0
-296 -758 759 0
165 -760 0
34 -760 0
-165 -34 760 0
-759 559 0
-760 559 0
759 760 -559 0
35 166 -761 0
-35 166 761 0
35 -166 761 0
-35 -166 -761 0
761 297 -428 0
-761 297 428 0
761 -297 428 0
-761 -297 -428 0
297 -762 0
761 -762 0
-297 -761 762 0
166 -763 0
35 -763 0
-166 -35 763 0
-762 560 0
-763 560 0
762 763 -560 0
36 167 -764 0
-36 167 764 0
36 -167 764 0
-36 -167 -764 0
764 298 -429 0
-764 298 429 0
764 -298 429 0
-764 -298 -429 0
298 -765 0
764 -765 0
-298 -764 765 0
167 -766 0
36 -766 0
-167 -36 766 0
-765 561 0
-766 561 0
765 766 -561 0
37 168 -767 0
-37 168 767 0
37 -168 767 0
-37 -168 -767 0
767 299 -430 0
-767 299 430 0
767 -299 430 0
-767 -299 -430 0
299 -768 0
767 -768 0
-299 -767 768 0
168 -769 0
37 -769 0
-168 -37 769 0
-768 562 0
-769 562 0
768 769 -562 0
38 169 -770 0
-38 169 770 0
38 -169 770 0
-38 -169 -770 0
770 300 -431 0
-770 300 431 0
770 -300 431 0
-770 -300 -431 0
300 -771 0
770 -771 0
-300 -770 771 0
169 -772 0
38 -772 0
-169 -38 772 0
-771 563 0
-772 563 0
771 772 -563 0
39 170 -773 0
-39 170 773 0
39 -170 773 0
-39 -170 -773 0
773 301 -432 0
-773 301 432 0
773 -301 432 0
-773 -301 -432 0
301 -774 0
773 -774 0
-301 -773 774 0
170 -775 0
39 -775 0
-170 -39 775 0
-774 564 0
-775 564 0
774 775 -564 0
40 171 -776 0
-40 171 776 0
40 -171 776 0
-40 -171 -776 0
776 302 -433 0
-776 302 433 0
776 -302 433 0
-776 -302 -433 0
302 -777 0
776 -777 0
-302 -776 777 0
171 -778 0
40 -778 0
-171 -40 778 0
-777 565 0
-778 565 0
777 778 -565 0
41 172 -779 0
-41 172 779 0
41 -172 779 0
-41 -172 -779 0
779 303 -434 0
-779 303 434 0
779 -303 434 0
-779 -303 -434 0
303 -780 0
779 -780 0
-303 -779 780 0
172 -781 0
41 -781 0
-172 -41 781 0
-780 566 0
-781 566 0
780 781 -566 0
42 173 -782 0
-42 173 782 0
42 -173 782 0
-42 -173 -782 0
782 304 -435 0
-782 304 435 0
782 -304 435 0
-782 -304 -435 0
304 -783 0
782 -783 0
-304 -782 783 0
173 -784 0
42 -784 0
-173 -42 784 0
-783 567 0
-784 567 0
783 784 -567 0
43 174 -785 0
-43 174 785 0
43 -174 785 0
-43 -174 -785 0
785 305 -436 0
-785 305 436 0
785 -305 436 0
-785 -305 -436 0
305 -786 0
785 -786 0
-305 -785 786 0
174 -787 0
43 -787 0
-174 -43 787 0
-786 568 0
-787 568 0
786 787 -568 0
44 175 -788 0
-44 175 788 0
44 -175 788 0
-44 -175 -788 0
788 306 -437 0
-788 306 437 0
788 -306 437 0
-788 -306 -437 0
306 -789 0
788 -789 0
-306 -788 789 0
175 -790 0
44 -790 0
-175 -44 790 0
-789 569 0
-790 569 0
789 790 -569 0
45 176 -791 0
-45 176 791 0
45 -176 791 0
-45 -176 -791 0
791 307 -438 0
-791 307 438 0
791 -307 438 0
-791 -307 -438 0
307 -792 0
791 -792 0
-307 -791 792 0
176 -793 0
45 -793 0
-176 -45 793 0
-792 570 0
-793 570 0
792 793 -570 0
46 177 -794 0
-46 177 794 0
46 -177 794 0
-46 -177 -794 0
794 308 -439 0
-794 308 439 0
794 -308 439 0
-794 -308 -439 0
308 -795 0
794 -795 0
-308 -794 795 0
177 -796 0
46 -796 0
-177 -46 796 0
-795 571 0
-796 571 0
795 796 -571 0
47 178 -797 0
-47 178 797 0
47 -178 797 0
-47 -178 -797 0
797 309 -440 0
-797 309 440 0
797 -309 440 0
-797 -309 -440 0
309 -798 0
797 -798 0
-309 -797 798 0
178 -799 0
47 -799 0
-178 -47 799 0
-798 572 0
-799 572 0
798 799 -572 0
48 179 -800 0
-48 179 800 0
48 -179 800 0
-48 -179 -800 0
800 310 -441 0
-800 310 441 0
800 -310 441 0
-800 -310 -441 0
310 -801 0
800 -801 0
-310 -800 801 0
179 -802 0
48 -802 0
-179 -48 802 0
-801 573 0
-802 573 0
801 802 -573 0
49 180 -803 0
-49 180 803 0
49 -180 803 0
-49 -180 -803 0
803 311 -442 0
-803 311 442 0
803 -311 442 0
-803 -311 -442 0
311 -804 0
803 -804 0
-311 -803 804 0
180 -805 0
49 -805 0
-180 -49 805 0
-804 574 0
-805 574 0
804 805 -574 0
50 181 -806 0
-50 181 806 0
50 -181 806 0
-50 -181 -806 0
806 312 -443 0
-806 312 443 0
806 -312 443 0
-806 -312 -443 0
312 -807 0
806 -807 0
-312 -806 807 0
181 -808 0
50 -808 0
-181 -50 808 0
-807 575 0
-808 575 0
807 808 -575 0
51 182 -809 0
-51 182 809 0
51 -182 809 0
-51 -182 -809 0
809 313 -444 0
-809 313 444 0
809 -313 444 0
-809 -313 -444 0
313 -810 0
809 -810 0
-313 -809 810 0
182 -811 0
51 -811 0
-182 -51 811 0
-810 576 0
-811 576 0
810 811 -576 0
52 183 -812 0
-52 183 812 0
52 -183 812 0
-52 -183 -812 0
812 314 -445 0
-812 314 445 0
812 -314 445 0
-812 -314 -445 0
314 -813 0
812 -813 0
-314 -812 813 0
183 -814 0
52 -814 0
-183 -52 814 0
-813 577 0
-814 577 0
813 814 -577 0
53 184 -815 0
-53 184 815 0
53 -184 815 0
-53 -184 -815 0
815 315 -446 0
-815 315 446 0
815 -315 446 0
-815 -315 -446 0
315 -816 0
815 -816 0
-315 -815 816 0
184 -817 0
53 -817 0
-184 -53 817 0
-816 578 0
-817 578 0
816 817 -578 0
54 185 -818 0
-54 185 818 0
54 -185 818 0
-54 -185 -818 0
818 316 -447 0
-818 316 447 0
818 -316 447 0
-818 -316 -447 0
316 -819 0
818 -819 0
-316 -818 819 0
185 -820 0
54 -820 0
-185 -54 820 0
-819 579 0
-820 579 0
819 820 -579 0
55 186 -821 0
-55 186 821 0
55 -186 821 0
-55 -186 -821 0
821 317 -448 0
-821 317 448 0
821 -317 448 0
-821 -317 -448 0
317 -822 0
821 -822 0
-317 -821 822 0
186 -823 0
55 -823 0
-186 -55 823 0
-822 580 0
-823 580 0
822 823 -580 0
56 187 -824 0
-56 187 824 0
56 -187 824 0
-56 -187 -824 0
824 318 -449 0
-824 318 449 0
824 -318 449 0
-824 -318 -449 0
318 -825 0
824 -825 0
-318 -824 825 0
187 -826 0
56 -826 0
-187 -56 826 0
-825 581 0
-826 581 0
825 826 -581 0
57 188 -827 0
-57 188 827 0
57 -188 827 0
-57 -188 -827 0
827 319 -450 0
-827 319 450 0
827 -319 450 0
-827 -319 -450 0
319 -828 0
827 -828 0
-319 -827 828 0
188 -829 0
57 -829 0
-188 -57 829 0
-828 582 0
-829 582 0
828 829 -582 0
58 189 -830 0
-58 189 830 0
58 -189 830 0
-58 -189 -830 0
830 320 -451 0
-830 320 451 0
830 -320 451 0
-830 -320 -451 0
320 -831 0
830 -831 0
-320 -830 831 0
189 -832 0
58 -832 0
-189 -58 832 0
-831 583 0
-832 583 0
831 832 -583 0
59 190 -833 0
-59 190 833 0
59 -190 833 0
-59 -190 -833 0
833 321 -452 0
-833 321 452 0
833 -321 452 0
-833 -321 -452 0
321 -834 0
833 -834 0
-321 -833 834 0
190 -835 0
59 -835 0
-190 -59 835 0
-834 584 0
-835 584 0
834 835 -584 0
60 191 -836 0
-60 191 836 0
60 -191 836 0
-60 -191 -836 0
836 322 -453 0
-836 322 453 0
836 -322 453 0
-836 -322 -453 0
322 -837 0
836 -837 0
-322 -836 837 0
191 -838 0
60 -838 0
-191 -60 838 0
-837 585 0
-838 585 0
837 838 -585 0
61 192 -839 0
-61 192 839 0
61 -192 839 0
-61 -192 -839 0
839 323 -454 0
-839 323 454 0
839 -323 454 0
-839 -323 -454 0
323 -840 0
839 -840 0
-323 -839 840 0
192 -841 0
61 -841 0
-192 -61 841 0
-840 586 0
-841 586 0
840 841 -586 0
62 193 -842 0
-62 193 842 0
62 -193 842 0
-62 -193 -842 0
842 324 -455 0
-842 324 455 0
842 -324 455 0
-842 -324 -455 0
324 -843 0
842 -843 0
-324 -842 843 0
193 -844 0
62 -844 0
-193 -62 844 0
-843 587 0
-844 587 0
843 844 -587 0
63 194 -845 0
-63 194 845 0
63 -194 845 0
-63 -194 -845 0
845 325 -456 0
-845 325 456 0
845 -325 456 0
-845 -325 -456 0
325 -846 0
845 -846 0
-325 -845 846 0
194 -847 0
63 -847 0
-194 -63 847 0
-846 588 0
-847 588 0
846 847 -588 0
64 195 -848 0
-64 195 848 0
64 -195 848 0
-64 -195 -848 0
848 326 -457 0
-848 326 457 0
848 -326 457 0
-848 -326 -457 0
326 -849 0
848 -849 0
-326 -848 849 0
195 -850 0
64 -850 0
-195 -64 850 0
-849 589 0
-850 589 0
849 850 -589 0
65 196 -851 0
-65 196 851 0
65 -196 851 0
-65 -196 -851 0
851 327 -458 0
-851 327 458 0
851 -327 458 0
-851 -327 -458 0
327 -852 0
851 -852 0
-327 -851 852 0
196 -853 0
65 -853 0
-196 -65 853 0
-852 590 0
-853 590 0
852 853 -590 0
66 197 -854 0
-66 197 854 0
66 -197 854 0
-66 -197 -854 0
854 328 -459 0
-854 328 459 0
854 -328 459 0
-854 -328 -459 0
328 -855 0
854 -855 0
-328 -854 855 0
197 -856 0
66 -856 0
-197 -66 856 0
-855 591 0
-856 591 0
855 856 -591 0
67 198 -857 0
-67 198 857 0
67 -198 857 0
-67 -198 -857 0
857 329 -460 0
-857 329 460 0
857 -329 460 0
-857 -329 -460 0
329 -858 0
857 -858 0
-329 -857 858 0
198 -859 0
67 -859 0
-198 -67 859 0
-858 592 0
-859 592 0
858 859 -592 0
68 199 -860 0
-68 199 860 0
68 -199 860 0
-68 -199 -860 0
860 330 -461 0
-860 330 461 0
860 -330 461 0
-860 -330 -461 0
330 -861 0
860 -861 0
-330 -860 861 0
199 -862 0
68 -862 0
-199 -68 862 0
-861 593 0
-862 593 0
861 862 -593 0
69 200 -863 0
-69 200 863 0
69 -200 863 0
-69 -200 -863 0
863 331 -462 0
-863 331 462 0
863 -331 462 0
-863 -331 -462 0
331 -864 0
863 -864 0
-331 -863 864 0
200 -865 0
69 -865 0
-200 -69 865 0
-864 594 0
-865 594 0
864 865 -594 0
70 201 -866 0
-70 201 866 0
70 -201 866 0
-70 -201 -866 0
866 332 -463 0
-866 332 463 0
866 -332 463 0
-866 -332 -463 0
332 -867 0
866 -867 0
-332 -866 867 0
201 -868 0
70 -868 0
-201 -70 868 0
-867 595 0
-868 595 0
867 868 -595 0
71 202 -869 0
-71 202 869 0
71 -202 869 0
-71 -202 -869 0
869 333 -464 0
-869 333 464 0
869 -333 464 0
-869 -333 -464 0
333 -870 0
869 -870 0
-333 -869 870 0
202 -871 0
71 -871 0
-202 -71 871 0
-870 596 0
-871 596 0
870 871 -596 0
72 203 -872 0
-72 203 872 0
72 -203 872 0
-72 -203 -872 0
872 334 -465 0
-872 334 465 0
872 -334 465 0
-872 -334 -465 0
334 -873 0
872 -873 0
-334 -872 873 0
203 -874 0
72 -874 0
-203 -72 874 0
-873 597 0
-874 597 0
873 874 -597 0
73 204 -875 0
-73 204 875 0
73 -204 875 0
-73 -204 -875 0
875 335 -466 0
-875 335 466 0
875 -335 466 0
-875 -335 -466 0
335 -876 0
875 -876 0
-335 -875 876 0
204 -877 0
73 -877 0
-204 -73 877 0
-876 598 0
-877 598 0
876 877 -598 0
74 205 -878 0
-74 205 878 0
74 -205 878 0
-74 -205 -878 0
878 336 -467 0
-878 336 467 0
878 -336 467 0
-878 -336 -467 0
336 -879 0
878 -879 0
-336 -878 879 0
205 -880 0
74 -880 0
-205 -74 880 0
-879 599 0
-880 599 0
879 880 -599 0
75 206 -881 0
-75 206 881 0
75 -206 881 0
-75 -206 -881 0
881 337 -468 0
-881 337 468 0
881 -337 468 0
-881 -337 -468 0
337 -882 0
881 -882 0
-337 -881 882 0
206 -883 0
75 -883 0
-206 -75 883 0
-882 600 0
-883 600 0
882 883 -600 0
76 207 -884 0
-76 207 884 0
76 -207 884 0
-76 -207 -884 0
884 338 -469 0
-884 338 469 0
884 -338 469 0
-884 -338 -469 0
338 -885 0
884 -885 0
-338 -884 885 0
207 -886 0
76 -886 0
-207 -76 886 0
-885 601 0
-886 601 0
885 886 -601 0
77 208 -887 0
-77 208 887 0
77 -208 887 0
-77 -208 -887 0
887 339 -470 0
-887 339 470 0
887 -339 470 0
-887 -339 -470 0
339 -888 0
887 -888 0
-339 -887 888 0
208 -889 0
77 -889 0
-208 -77 889 0
-888 602 0
-889 602 0
888 889 -602 0
78 209 -890 0
-78 209 890 0
78 -209 890 0
-78 -209 -890 0
890 340 -471 0
-890 340 471 0
890 -340 471 0
-890 -340 -471 0
340 -891 0
890 -891 0
-340 -890 891 0
209 -892 0
78 -892 0
-209 -78 892 0
-891 603 0
-892 603 0
891 892 -603 0
79 210 -893 0
-79 210 893 0
79 -210 893 0
-79 -210 -893 0
893 341 -472 0
-893 341 472 0
893 -341 472 0
-893 -341 -472 0
341 -894 0
893 -894 0
-341 -893 894 0
210 -895 0
79 -895 0
-210 -79 895 0
-894 604 0
-895 604 0
894 895 -604 0
80 211 -896 0
-80 211 896 0
80 -211 896 0
-80 -211 -896 0
896 342 -473 0
-896 342 473 0
896 -342 473 0
-896 -342 -473 0
342 -897 0
896 -897 0
-342 -896 897 0
211 -898 0
80 -898 0
-211 -80 898 0
-897 605 0
-898 605 0
897 898 -605 0
81 212 -899 0
-81 212 899 0
81 -212 899 0
-81 -212 -899 0
899 343 -474 0
-899 343 474 0
899 -343 474 0
-899 -343 -474 0
343 -900 0
899 -900 0
-343 -899 900 0
212 -901 0
81 -901 0
-212 -81 901 0
-900 606 0
-901 606 0
900 901 -606 0
82 213 -902 0
-82 213 902 0
82 -213 902 0
-82 -213 -902 0
902 344 -475 0
-902 344 475 0
902 -344 475 0
-902 -344 -475 0
344 -903 0
902 -903 0
-344 -902 903 0
213 -904 0
82 -904 0
-213 -82 904 0
-903 607 0
-904 607 0
903 904 -607 0
83 214 -905 0
-83 214 905 0
83 -214 905 0
-83 -214 -905 0
905 345 -476 0
-905 345 476 0
905 -345 476 0
-905 -345 -476 0
345 -906 0
905 -906 0
-345 -905 906 0
214 -907 0
83 -907 0
-214 -83 907 0
-906 608 0
-907 608 0
906 907 -608 0
84 215 -908 0
-84 215 908 0
84 -215 908 0
-84 -215 -908 0
908 346 -477 0
-908 346 477 0
908 -346 477 0
-908 -346 -477 0
346 -909 0
908 -909 0
-346 -908 909 0
215 -910 0
84 -910 0
-215 -84 910 0
-909 609 0
-910 609 0
909 910 -609 0
85 216 -911 0
-85 216 911 0
85 -216 911 0
-85 -216 -911 0
911 347 -478 0
-911 347 478 0
911 -347 478 0
-911 -347 -478 0
347 -912 0
911 -912 0
-347 -911 912 0
216 -913 0
85 -913 0
-216 -85 913 0
-912 610 0
-913 610 0
912 913 -610 0
86 217 -914 0
-86 217 914 0
86 -217 914 0
-86 -217 -914 0
914 348 -479 0
-914 348 479 0
914 -348 479 0
-914 -348 -479 0
348 -915 0
914 -915 0
-348 -914 915 0
217 -916 0
86 -916 0
-217 -86 916 0
-915 611 0
-916 611 0
915 916 -611 0
87 218 -917 0
-87 218 917 0
87 -218 917 0
-87 -218 -917 0
917 349 -480 0
-917 349 480 0
917 -349 480 0
-917 -349 -480 0
349 -918 0
917 -918 0
-349 -917 918 0
218 -919 0
87 -919 0
-218 -87 919 0
-918 612 0
-919 612 0
918 919 -612 0
88 219 -920 0
-88 219 920 0
88 -219 920 0
-88 -219 -920 0
920 350 -481 0
-920 350 481 0
920 -350 481 0
-920 -350 -481 0
350 -921 0
920 -921 0
-350 -920 921 0
219 -922 0
88 -922 0
-219 -88 922 0
-921 613 0
-922 613 0
921 922 -613 0
89 220 -923 0
-89 220 923 0
89 -220 923 0
-89 -220 -923 0
923 351 -482 0
-923 351 482 0
923 -351 482 0
-923 -351 -482 0
351 -924 0
923 -924 0
-351 -923 924 0
220 -925 0
89 -925 0
-220 -89 925 0
-924 614 0
-925 614 0
924 925 -614 0
90 221 -926 0
-90 221 926 0
90 -221 926 0
-90 -221 -926 0
926 352 -483 0
-926 352 483 0
926 -352 483 0
-926 -352 -483 0
352 -927 0
926 -927 0
-352 -926 927 0
221 -928 0
90 -928 0
-221 -90 928 0
-927 615 0
-928 615 0
927 928 -615 0
91 222 -929 0
-91 222 929 0
91 -222 929 0
-91 -222 -929 0
929 353 -484 0
-929 353 484 0
929 -353 484 0
-929 -353 -484 0
353 -930 0
929 -930 0
-353 -929 930 0
222 -931 0
91 -931 0
-222 -91 931 0
-930 616 0
-931 616 0
930 931 -616 0
92 223 -932 0
-92 223 932 0
92 -223 932 0
-92 -223 -932 0
932 354 -485 0
-932 354 485 0
932 -354 485 0
-932 -354 -485 0
354 -933 0
932 -933 0
-354 -932 933 0
223 -934 0
92 -934 0
-223 -92 934 0
-933 617 0
-934 617 0
933 934 -617 0
93 224 -935 0
-93 224 935 0
93 -224 935 0
-93 -224 -935 0
935 355 -486 0
-935 355 486 0
935 -355 486 0
-935 -355 -486 0
355 -936 0
935 -936 0
-355 -935 936 0
224 -937 0
93 -937 0
-224 -93 937 0
-936 618 0
-937 618 0
936 937 -618 0
94 225 -938 0
-94 225 938 0
94 -225 938 0
-94 -225 -938 0
938 356 -487 0
-938 356 487 0
938 -356 487 0
-938 -356 -487 0
356 -939 0
938 -939 0
-356 -938 939 0
225 -940 0
94 -940 0
-225 -94 940 0
-939 619 0
-940 619 0
939 940 -619 0
95 226 -941 0
-95 226 941 0
95 -226 941 0
-95 -226 -941 0
941 357 -488 0
-941 357 488 0
941 -357 488 0
-941 -357 -488 0
357 -942 0
941 -942 0
-357 -941 942 0
226 -943 0
95 -943 0
-226 -95 943 0
-942 620 0
-943 620 0
942 943 -620 0
96 227 -944 0
-96 227 944 0
96 -227 944 0
-96 -227 -944 0
944 358 -489 0
-944 358 489 0
944 -358 489 0
-944 -358 -489 0
358 -945 0
944 -945 0
-358 -944 945 0
227 -946 0
96 -946 0
-227 -96 946 0
-945 621 0
-946 621 0
945 946 -621 0
97 228 -947 0
-97 228 947 0
97 -228 947 0
-97 -228 -947 0
947 359 -490 0
-947 359 490 0
947 -359 490 0
-947 -359 -490 0
359 -948 0
947 -948 0
-359 -947 948 0
228 -949 0
97 -949 0
-228 -97 949 0
-948 622 0
-949 622 0
948 949 -622 0
98 229 -950 0
-98 229 950 0
98 -229 950 0
-98 -229 -950 0
950 360 -491 0
-950 360 491 0
950 -360 491 0
-950 -360 -491 0
360 -951 0
950 -951 0
-360 -950 951 0
229 -952 0
98 -952 0
-229 -98 952 0
-951 623 0
-952 623 0
951 952 -623 0
99 230 -953 0
-99 230 953 0
99 -230 953 0
-99 -230 -953 0
953 361 -492 0
-953 361 492 0
953 -361 492 0
-953 -361 -492 0
361 -954 0
953 -954 0
-361 -953 954 0
230 -955 0
99 -955 0
-230 -99 955 0
-954 624 0
-955 624 0
954 955 -624 0
100 231 -956 0
-100 231 956 0
100 -231 956 0
-100 -231 -956 0
956 362 -493 0
-956 362 493 0
956 -362 493 0
-956 -362 -493 0
362 -957 0
956 -957 0
-362 -956 957 0
231 -958 0
100 -958 0
-231 -100 958 0
-957 625 0
-958 625 0
957 958 -625 0
101 232 -959 0
-101 232 959 0
101 -232 959 0
-101 -232 -959 0
959 363 -494 0
-959 363 494 0
959 -363 494 0
-959 -363 -494 0
363 -960 0
959 -960 0
-363 -959 960 0
232 -961 0
101 -961 0
-232 -101 961 0
-960 626 0
-961 626 0
960 961 -626 0
102 233 -962 0
-102 233 962 0
102 -233 962 0
-102 -233 -962 0
962 364 -495 0
-962 364 495 0
962 -364 495 0
-962 -364 -495 0
364 -963 0
962 -963 0
-364 -962 963 0
233 -964 0
102 -964 0
-233 -102 964 0
-963 627 0
-964 627 0
963 964 -627 0
103 234 -965 0
-103 234 965 0
103 -234 965 0
-103 -234 -965 0
965 365 -496 0
-965 365 496 0
965 -365 496 0
-965 -365 -496 0
365 -966 0
965 -966 0
-365 -965 966 0
234 -967 0
103 -967 0
-234 -103 967 0
-966 628 0
-967 628 0
966 967 -628 0
104 235 -968 0
-104 235 968 0
104 -235 968 0
-104 -235 -968 0
968 366 -497 0
-968 366 497 0
968 -366 497 0
-968 -366 -497 0
366 -969 0
968 -969 0
-366 -968 969 0
235 -970 0
104 -970 0
-235 -104 970 0
-969 629 0
-970 629 0
969 970 -629 0
105 236 -971 0
-105 236 971 0
105 -236 971 0
-105 -236 -971 0
971 367 -498 0
-971 367 498 0
971 -367 498 0
-971 -367 -498 0
367 -972 0
971 -972 0
-367 -971 972 0
236 -973 0
105 -973 0
-236 -105 973 0
-972 630 0
-973 630 0
972 973 -630 0
106 237 -974 0
-106 237 974 0
106 -237 974 0
-106 -237 -974 0
974 368 -499 0
-974 368 499 0
974 -368 499 0
-974 -368 -499 0
368 -975 0
974 -975 0
-368 -974 975 0
237 -976 0
106 -976 0
-237 -106 976 0
-975 631 0
-976 631 0
975 976 -631 0
107 238 -977 0
-107 238 977 0
107 -238 977 0
-107 -238 -977 0
977 369 -500 0
-977 369 500 0
977 -369 500 0
-977 -369 -500 0
369 -978 0
977 -978 0
-369 -977 978 0
238 -979 0
107 -979 0
-238 -107 979 0
-978 632 0
-979 632 0
978 979 -632 0
108 239 -980 0
-108 239 980 0
108 -239 980 0
-108 -239 -980 0
980 370 -501 0
-980 370 501 0
980 -370 501 0
-980 -370 -501 0
370 -981 0
980 -981 0
-370 -980 981 0
239 -982 0
108 -982 0
-239 -108 982 0
-981 633 0
-982 633 0
981 982 -633 0
109 240 -983 0
-109 240 983 0
109 -240 983 0
-109 -240 -983 0
983 371 -502 0
-983 371 502 0
983 -371 502 0
-983 -371 -502 0
371 -984 0
983 -984 0
-371 -983 984 0
240 -985 0
109 -985 0
-240 -109 985 0
-984 634 0
-985 634 0
984 985 -634 0
110 241 -986 0
-110 241 986 0
110 -241 986 0
-110 -241 -986 0
986 372 -503 0
-986 372 503 0
986 -372 503 0
-986 -372 -503 0
372 -987 0
986 -987 0
-372 -986 987 0
241 -988 0
110 -988 0
-241 -110 988 0
-987 635 0
-988 635 0
987 988 -635 0
111 242 -989 0
-111 242 989 0
111 -242 989 0
-111 -242 -989 0
989 373 -504 0
-989 373 504 0
989 -373 504 0
-989 -373 -504 0
373 -990 0
989 -990 0
-373 -989 990 0
242 -991 0
111 -991 0
-242 -111 991 0
-990 636 0
-991 636 0
990 991 -636 0
112 243 -992 0
-112 243 992 0
112 -243 992 0
-112 -243 -992 0
992 374 -505 0
-992 374 505 0
992 -374 505 0
-992 -374 -505 0
374 -993 0
992 -993 0
-374 -992 993 0
243 -994 0
112 -994 0
-243 -112 994 0
-993 637 0
-994 637 0
993 994 -637 0
113 244 -995 0
-113 244 995 0
113 -244 995 0
-113 -244 -995 0
995 375 -506 0
-995 375 506 0
995 -375 506 0
-995 -375 -506 0
375 -996 0
995 -996 0
-375 -995 996 0
244 -997 0
113 -997 0
-244 -113 997 0
-996 638 0
-997 638 0
996 997 -638 0
114 245 -998 0
-114 245 998 0
114 -245 998 0
-114 -245 -998 0
998 376 -507 0
-998 376 507 0
998 -376 507 0
-998 -376 -507 0
376 -999 0
998 -999 0
-376 -998 999 0
245 -1000 0
114 -1000 0
-245 -114 1000 0
-999 639 0
-1000 639 0
999 1000 -639 0
115 246 -1001 0
-115 246 1001 0
115 -246 1001 0
-115 -246 -1001 0
1001 377 -508 0
-1001 377 508 0
1001 -377 508 0
-1001 -377 -508 0
377 -1002 0
1001 -1002 0
-377 -1001 1002 0
246 -1003 0
115 -1003 0
-246 -115 1003 0
-1002 640 0
-1003 640 0
1002 1003 -640 0
116 247 -1004 0
-116 247 1004 0
116 -247 1004 0
-116 -247 -1004 0
1004 378 -509 0
-1004 378 509 0
1004 -378 509 0
-1004 -378 -509 0
378 -1005 0
1004 -1005 0
-378 -1004 1005 0
247 -1006 0
116 -1006 0
-247 -116 1006 0
-1005 641 0
-1006 641 0
1005 1006 -641 0
117 248 -1007 0
-117 248 1007 0
117 -248 1007 0
-117 -248 -1007 0
1007 379 -510 0
-1007 379 510 0
1007 -379 510 0
-1007 -379 -510 0
379 -1008 0
1007 -1008 0
-379 -1007 1008 0
248 -1009 0
117 -1009 0
-248 -117 1009 0
-1008 642 0
-1009 642 0
1008 1009 -642 0
118 249 -1010 0
-118 249 1010 0
118 -249 1010 0
-118 -249 -1010 0
1010 380 -511 0
-1010 380 511 0
1010 -380 511 0
-1010 -380 -511 0
380 -1011 0
1010 -1011 0
-380 -1010 1011 0
249 -1012 0
118 -1012 0
-249 -118 1012 0
-1011 643 0
-1012 643 0
1011 1012 -643 0
119 250 -1013 0
-119 250 1013 0
119 -250 1013 0
-119 -250 -1013 0
1013 381 -512 0
-1013 381 512 0
1013 -381 512 0
-1013 -381 -512 0
381 -1014 0
1013 -1014 0
-381 -1013 1014 0
250 -1015 0
119 -1015 0
-250 -119 1015 0
-1014 644 0
-1015 644 0
1014 1015 -644 0
120 251 -1016 0
-120 251 1016 0
120 -251 1016 0
-120 -251 -1016 0
1016 382 -513 0
-1016 382 513 0
1016 -382 513 0
-1016 -382 -513 0
382 -1017 0
1016 -1017 0
-382 -1016 1017 0
251 -1018 0
120 -1018 0
-251 -120 1018 0
-1017 645 0
-1018 645 0
1017 1018 -645 0
121 252 -1019 0
-121 252 1019 0
121 -252 1019 0
-121 -252 -1019 0
1019 383 -514 0
-1019 383 514 0
1019 -383 514 0
-1019 -383 -514 0
383 -1020 0
1019 -1020 0
-383 -1019 1020 0
252 -1021 0
121 -1021 0
-252 -121 1021 0
-1020 646 0
-1021 646 0
1020 1021 -646 0
122 253 -1022 0
-122 253 1022 0
122 -253 1022 0
-122 -253 -1022 0
1022 384 -515 0
-1022 384 515 0
1022 -384 515 0
-1022 -384 -515 0
384 -1023 0
1022 -1023 0
-384 -1022 1023 0
253 -1024 0
122 -1024 0
-253 -122 1024 0
-1023 647 0
-1024 647 0
1023 1024 -647 0
123 254 -1025 0
-123 254 1025 0
123 -254 1025 0
-123 -254 -1025 0
1025 385 -516 0
-1025 385 516 0
1025 -385 516 0
-1025 -385 -516 0
385 -1026 0
1025 -1026 0
-385 -1025 1026 0
254 -1027 0
123 -1027 0
-254 -123 1027 0
-1026 648 0
-1027 648 0
1026 1027 -648 0
124 255 -1028 0
-124 255 1028 0
124 -255 1028 0
-124 -255 -1028 0
1028 386 -517 0
-1028 386 517 0
1028 -386 517 0
-1028 -386 -517 0
386 -1029 0
1028 -1029 0
-386 -1028 1029 0
255 -1030 0
124 -1030 0
-255 -124 1030 0
-1029 649 0
-1030 649 0
1029 1030 -649 0
125 256 -1031 0
-125 256 1031 0
125 -256 1031 0
-125 -256 -1031 0
1031 387 -518 0
-1031 387 518 0
1031 -387 518 0
-1031 -387 -518 0
387 -1032 0
1031 -1032 0
-387 -1031 1032 0
256 -1033 0
125 -1033 0
-256 -125 1033 0
-1032 650 0
-1033 650 0
1032 1033 -650 0
126 257 -1034 0
-126 257 1034 0
126 -257 1034 0
-126 -257 -1034 0
1034 388 -519 0
-1034 388 519 0
1034 -388 519 0
-1034 -388 -519 0
388 -1035 0
1034 -1035 0
-388 -1034 1035 0
257 -1036 0
126 -1036 0
-257 -126 1036 0
-1035 651 0
-1036 651 0
1035 1036 -651 0
127 258 -1037 0
-127 258 1037 0
127 -258 1037 0
-127 -258 -1037 0
1037 389 -520 0
-1037 389 520 0
1037 -389 520 0
-1037 -389 -520 0
389 -1038 0
1037 -1038 0
-389 -1037 1038 0
258 -1039 0
127 -1039 0
-258 -127 1039 0
-1038 652 0
-1039 652 0
1038 1039 -652 0
128 259 -1040 0
-128 259 1040 0
128 -259 1040 0
-128 -259 -1040 0
1040 390 -521 0
-1040 390 521 0
1040 -390 521 0
-1040 -390 -521 0
390 -1041 0
1040 -1041 0
-390 -1040 1041 0
259 -1042 0
128 -1042 0
-259 -128 1042 0
-1041 653 0
-1042 653 0
1041 1042 -653 0
129 260 -1043 0
-129 260 1043 0
129 -260 1043 0
-129 -260 -1043 0
1043 391 -522 0
-1043 391 522 0
1043 -391 522 0
-1043 -391 -522 0
391 -1044 0
1043 -1044 0
-391 -1043 1044 0
260 -1045 0
129 -1045 0
-260 -129 1045 0
-1044 654 0
-1045 654 0
1044 1045 -654 0
130 261 -1046 0
-130 261 1046 0
130 -261 1046 0
-130 -261 -1046 0
1046 392 -523 0
-1046 392 523 0
1046 -392 523 0
-1046 -392 -523 0
392 -1047 0
1046 -1047 0
-392 -1046 1047 0
261 -1048 0
130 -1048 0
-261 -130 1048 0
-1047 655 0
-1048 655 0
1047 1048 -655 0
131 262 -1049 0
-131 262 1049 0
131 -262 1049 0
-131 -262 -1049 0
1049 393 -524 0
-1049 393 524 0
1049 -393 524 0
-1049 -393 -524 0
393 -1050 0
1049 -1050 0
-393 -1049 1050 0
262 -1051 0
131 -1051 0
-262 -131 1051 0
-1050 656 0
-1051 656 0
1050 1051 -656 0
